p cnf 7230 17
-3584 -3588 4167 0
3588 -4167 0
-3594 -3628 -4172 0
-3108 -3664 -4168 0
3594 -4173 0
3108 -4169 0
4172 4173 0
4170 4171 0
3592 -4171 0
-3592 -4170 0
4168 4169 0
3628 -4173 0
3664 -4169 0
-3596 4175 0
3596 -4175 0
4166 4167 0
-4166 -4167 0
